Route #1: 33 1 56 23 63 51
Route #2: 68 22 64 42 41 43 73
Route #3: 74 21 61 28 62
Route #4: 6 2 30 4
Route #5: 29 37 20 70 60 71 69 36
Route #6: 13 57 15 5 47 48
Route #7: 34 52 27 45 75
Route #8: 67 46 8 26
Route #9: 35 14 59 19 54
Route #10: 65 66 11 7
Route #11: 72 31 10 38 53
Route #12: 40 9 39 58
Route #13: 12 25 55 18 50 32
Route #14: 17 3 44 24 49 16
Cost 1033
Time 0.132214
